GLPSOL--GLPK LP/MIP Solver 5.0
Parameter(s) specified in the command line:
 --lp ../modeles/10_139.lp --log 10_139.log
Reading problem data from '../modeles/10_139.lp'...
1431 rows, 2800 columns, 9780 non-zeros
1390 integer variables, all of which are binary
4247 lines were read
GLPK Integer Optimizer 5.0
1431 rows, 2800 columns, 9780 non-zeros
1390 integer variables, all of which are binary
Preprocessing...
1380 constraint coefficient(s) were reduced
1431 rows, 2790 columns, 9770 non-zeros
1390 integer variables, all of which are binary
Scaling...
 A: min|aij| =  2.070e-04  max|aij| =  4.000e+00  ratio =  1.932e+04
GM: min|aij| =  8.482e-02  max|aij| =  1.179e+01  ratio =  1.390e+02
EQ: min|aij| =  7.194e-03  max|aij| =  1.000e+00  ratio =  1.390e+02
2N: min|aij| =  3.312e-03  max|aij| =  1.688e+00  ratio =  5.095e+02
Constructing initial basis...
Size of triangular part is 1431
Solving LP relaxation...
GLPK Simplex Optimizer 5.0
1431 rows, 2790 columns, 9770 non-zeros
      0: obj =   2.000000000e+01 inf =   4.110e+02 (21)
    129: obj =   4.989906832e-01 inf =   0.000e+00 (0)
*   271: obj =  -3.159009156e+00 inf =   1.166e-15 (0)
OPTIMAL LP SOLUTION FOUND
Integer optimization begins...
Long-step dual simplex will be used
+   271: mip =     not found yet >=              -inf        (1; 0)
+   907: >>>>>  -3.159009156e+00 >=  -3.159009156e+00 < 0.1% (632; 0)
+   907: mip =  -3.159009156e+00 >=     tree is empty   0.0% (0; 1263)
INTEGER OPTIMAL SOLUTION FOUND
Time used:   1.4 secs
Memory used: 4.1 Mb (4316020 bytes)
